language Essence 1.3

letting class be function(1 --> 2, 2 --> 1, 3 --> 1, 4 --> 2, 5 --> 1, 6 --> 1, 7 --> 1, 8 --> 2, 9 --> 2)
letting deck_length be 46
letting deck_width be 18
letting length be function(1 --> 6, 2 --> 2, 3 --> 11, 4 --> 3, 5 --> 1, 6 --> 1, 7 --> 1, 8 --> 1, 9 --> 1)
letting n_classes be 2
letting n_containers be 9
letting separation be function()
letting width be function(1 --> 6, 2 --> 4, 3 --> 13, 4 --> 4, 5 --> 8, 6 --> 3, 7 --> 1, 8 --> 3, 9 --> 1)
